
Gurobi 11.0.3 (linux64) logging started Fri Apr 17 05:50:19 2026

Set parameter LogFile to value "tree/results/ctmc/ctmc_depth-4_run-3/Full MIP/LogFile_FullModel.txt"
Gurobi Optimizer version 11.0.3 build v11.0.3rc0 (linux64 - "CentOS Linux 7 (Core)")

CPU model: Intel(R) Xeon(R) Platinum 8260 CPU @ 2.40GHz, instruction set [SSE2|AVX|AVX2|AVX512]
Thread count: 96 physical cores, 192 logical processors, using up to 32 threads

Optimize a model with 230453 rows, 141919 columns and 2835765 nonzeros
Model fingerprint: 0x0248220f
Model has 17664 general constraints
Variable types: 88714 continuous, 53205 integer (53205 binary)
Coefficient statistics:
  Matrix range     [9e-04, 1e+04]
  Objective range  [9e-04, 1e+04]
  Bounds range     [1e+00, 1e+03]
  RHS range        [1e-04, 1e+03]

User MIP start produced solution with objective -141299 (0.81s)
Loaded user MIP start with objective -141299
Processed MIP start in 1.03 seconds (0.23 work units)

Presolve added 17648 rows and 70656 columns
Presolve time: 4.33s
Presolved: 248101 rows, 212575 columns, 2977149 nonzeros
Presolved model has 70656 SOS constraint(s)
Variable types: 88714 continuous, 123861 integer (123861 binary)

Deterministic concurrent LP optimizer: primal simplex, dual simplex, and barrier
Showing barrier log only...

Root relaxation presolved: 248101 rows, 212575 columns, 2977149 nonzeros

Root barrier log...

Ordering time: 0.14s

Barrier statistics:
 Dense cols : 180
 AA' NZ     : 3.053e+06
 Factor NZ  : 1.189e+07 (roughly 300 MB of memory)
 Factor Ops : 6.146e+08 (less than 1 second per iteration)
 Threads    : 30

                  Objective                Residual
Iter       Primal          Dual         Primal    Dual     Compl     Time
   0  -1.37214909e+05  3.40217163e+09  1.10e+04 0.00e+00  7.79e+05    10s
   1  -8.70774432e+04  5.56637341e+09  1.19e+03 3.42e+01  1.72e+05    11s
   2  -6.19860892e+04  4.75572201e+09  1.20e+02 4.71e+00  2.42e+04    11s
   3  -1.02098457e+04  1.07733042e+09  1.18e+01 4.69e-01  2.99e+03    12s
   4  -1.02018995e+03  1.26122765e+08  1.17e+00 4.70e-02  3.14e+02    13s
   5  -1.01116618e+02  1.53194083e+07  1.18e-01 4.70e-03  3.50e+01    13s
   6  -9.20870408e+00  1.56728290e+06  1.21e-02 4.72e-04  3.51e+00    14s
   7  -1.78724471e-02  1.65932678e+05  1.50e-03 5.00e-05  3.71e-01    14s
   8   9.01000159e-01  2.22719485e+04  4.27e-04 6.70e-06  4.97e-02    15s
   9   9.65103076e-01  2.27614988e+03  4.23e-05 6.79e-07  5.08e-03    16s
  10   9.96509956e-01  2.28881905e+02  4.19e-06 6.80e-08  5.08e-04    16s
  11   9.99650924e-01  2.40007142e+01  4.16e-07 6.80e-09  5.13e-05    17s
  12   9.99965092e-01  3.30007360e+00  4.16e-08 6.80e-10  5.13e-06    17s
  13   9.99996509e-01  1.23215233e+00  4.12e-09 6.81e-11  5.17e-07    18s
  14   9.99999651e-01  1.02321523e+00  4.12e-10 6.81e-12  5.17e-08    19s
  15   9.99999965e-01  1.00234317e+00  4.12e-11 6.81e-13  5.22e-09    20s
  16   9.99999997e-01  1.00023432e+00  4.43e-12 6.81e-14  5.22e-10    21s
  17   1.00000000e+00  1.00002343e+00  7.39e-13 6.81e-15  5.22e-11    21s
  18   1.00000000e+00  1.00000234e+00  4.55e-13 6.81e-16  5.22e-12    22s
  19   1.00000000e+00  1.00000023e+00  4.26e-13 1.42e-14  5.22e-13    23s
  20   1.00000000e+00  1.00000002e+00  4.55e-13 1.42e-14  5.22e-14    24s
  21   1.00000000e+00  1.00000000e+00  4.26e-13 3.47e-18  5.22e-15    24s

Barrier solved model in 21 iterations and 24.38 seconds (16.25 work units)
Optimal objective 1.00000000e+00


Root crossover log...

   10521 DPushes remaining with DInf 0.0000000e+00                25s
       0 DPushes remaining with DInf 0.0000000e+00                25s

   83750 PPushes remaining with PInf 0.0000000e+00                25s
   46080 PPushes remaining with PInf 0.0000000e+00                25s
       0 PPushes remaining with PInf 0.0000000e+00                28s

  Push phase complete: Pinf 0.0000000e+00, Dinf 0.0000000e+00     28s


Root simplex log...

Iteration    Objective       Primal Inf.    Dual Inf.      Time
   83754    1.0000000e+00   0.000000e+00   0.000000e+00     29s
   83754    1.0000000e+00   0.000000e+00   0.000000e+00     29s
Concurrent spin time: 1.29s

Solved with barrier

Root relaxation: objective 1.000000e+00, 83754 iterations, 23.66 seconds (13.62 work units)
Total elapsed time = 115.85s (DegenMoves)

    Nodes    |    Current Node    |     Objective Bounds      |     Work
 Expl Unexpl |  Obj  Depth IntInf | Incumbent    BestBd   Gap | It/Node Time

     0     0    1.00000    0 15098 -141299.43    1.00000   100%     -  117s
H    0     0                    -41499.48551    1.00000   100%     - 3462s
     0     2    1.00000    0 15098 -41499.486    1.00000   100%     - 3600s

Explored 1 nodes (94762 simplex iterations) in 3600.33 seconds (5503.34 work units)
Thread count was 32 (of 192 available processors)

Solution count 2: -41499.5 -141299 

Time limit reached
Best objective -4.149948550725e+04, best bound 1.000000000000e+00, gap 100.0024%

User-callback calls 75691, time in user-callback 1.10 sec
